
Log started (V12.10.0.0) Fri Apr  2 11:23:05 2021

Warning, line 1709: Name 's267' does not exist.
Warning, line 1710: Name 's260' does not exist.
Warning, line 1711: Name 's174' does not exist.
Warning, line 1712: Name 's2' does not exist.
Warning, line 1713: Name 's243' does not exist.

Problem 'asset.lp' read.
Read time = 0.00 sec. (0.13 ticks)
New value for default parallel thread count: 1
New value for time limit in seconds: 400
Version identifier: 12.10.0.0 | 2019-11-26 | 843d4de
CPXPARAM_Threads                                 1
CPXPARAM_TimeLimit                               400
Found incumbent of value -0.855044 after 0.00 sec. (0.06 ticks)
Tried aggregator 4 times.
MIP Presolve eliminated 918 rows and 415 columns.
MIP Presolve modified 895 coefficients.
Aggregator did 214 substitutions.
Reduced MIP has 292 rows, 332 columns, and 1183 nonzeros.
Reduced MIP has 267 binaries, 41 generals, 0 SOSs, and 0 indicators.
Presolve time = 0.00 sec. (4.00 ticks)
Probing fixed 58 vars, tightened 15 bounds.
Probing time = 0.00 sec. (0.52 ticks)
Cover probing fixed 0 vars, tightened 20 bounds.
Tried aggregator 1 time.
MIP Presolve eliminated 118 rows and 114 columns.
MIP Presolve modified 6 coefficients.
Reduced MIP has 174 rows, 213 columns, and 587 nonzeros.
Reduced MIP has 170 binaries, 20 generals, 0 SOSs, and 0 indicators.
Presolve time = 0.00 sec. (0.65 ticks)
Probing time = 0.00 sec. (0.21 ticks)
Tried aggregator 1 time.
Detecting symmetries...
Reduced MIP has 174 rows, 213 columns, and 587 nonzeros.
Reduced MIP has 170 binaries, 20 generals, 0 SOSs, and 0 indicators.
Presolve time = 0.00 sec. (0.42 ticks)
Probing time = 0.00 sec. (0.21 ticks)
Clique table members: 165.
MIP emphasis: balance optimality and feasibility.
MIP search method: dynamic search.
Parallel mode: none, using 1 thread.
Root relaxation solution time = 0.00 sec. (0.79 ticks)

        Nodes                                         Cuts/
   Node  Left     Objective  IInf  Best Integer    Best Bound    ItCnt     Gap

*     0+    0                           -0.8550      561.2566              --- 
      0     0      276.3020    32       -0.8550      276.3020       99     --- 
*     0+    0                          266.9227      276.3020             3.51%
      0     0      271.1453    32      266.9227      Cuts: 34      129    1.58%
*     0+    0                          266.9249      271.1453             1.58%
      0     0      270.6045    32      266.9249      Cuts: 22      141    1.38%
Detecting symmetries...

Repeating presolve.
Tried aggregator 2 times.
MIP Presolve eliminated 80 rows and 108 columns.
Aggregator did 4 substitutions.
Reduced MIP has 90 rows, 101 columns, and 274 nonzeros.
Reduced MIP has 76 binaries, 11 generals, 0 SOSs, and 0 indicators.
Presolve time = 0.00 sec. (0.45 ticks)
Probing time = 0.00 sec. (0.06 ticks)
Tried aggregator 1 time.
Detecting symmetries...
Reduced MIP has 90 rows, 101 columns, and 274 nonzeros.
Reduced MIP has 76 binaries, 11 generals, 0 SOSs, and 0 indicators.
Presolve time = 0.00 sec. (0.19 ticks)
Represolve time = 0.00 sec. (1.09 ticks)
Probing time = 0.00 sec. (0.06 ticks)
Clique table members: 34.
MIP emphasis: balance optimality and feasibility.
MIP search method: dynamic search.
Parallel mode: none, using 1 thread.
Root relaxation solution time = 0.00 sec. (0.57 ticks)

        Nodes                                         Cuts/
   Node  Left     Objective  IInf  Best Integer    Best Bound    ItCnt     Gap

*     0+    0                          266.9249      270.6045             1.38%
      0     0      268.1743    27      266.9249      268.1743      219    0.47%
      0     0      268.1035    27      266.9249      Cuts: 14      235    0.44%
      0     0      267.8212    27      266.9249      Cuts: 34      249    0.34%
      0     0      267.6980    27      266.9249       Cuts: 8      261    0.29%
      0     0      267.6971    27      266.9249       Cuts: 8      270    0.29%
      0     0      267.5733    27      266.9249       Cuts: 8      279    0.24%
Detecting symmetries...
      0     0      267.5732    27      266.9249       Cuts: 6      286    0.24%
Detecting symmetries...
      0     1      267.5732    35      266.9249      266.9261      286    0.00%
Elapsed time = 0.04 sec. (26.29 ticks, tree = 0.01 MB, solutions = 2)

Clique cuts applied:  2
Cover cuts applied:  2
Implied bound cuts applied:  3
Flow cuts applied:  4
Mixed integer rounding cuts applied:  5
Zero-half cuts applied:  13
Lift and project cuts applied:  5
Gomory fractional cuts applied:  5

Root node processing (before b&c):
  Real time             =    0.04 sec. (26.32 ticks)
Sequential b&c:
  Real time             =    0.00 sec. (0.01 ticks)
                          ------------
Total (root+branch&cut) =    0.04 sec. (26.33 ticks)

Solution pool: 3 solutions saved.

MIP - Integer optimal, tolerance (0.0001/1e-06):  Objective =  2.6692487955e+02
Current MIP best bound =  2.6692608249e+02 (gap = 0.00120293, 0.00%)
Solution time =    0.04 sec.  Iterations = 286  Nodes = 1 (1)
Deterministic time = 26.34 ticks  (673.19 ticks/sec)


Incumbent solution
Variable Name           Solution Value
F                           280.000000
f1                            0.875120
f2                           12.200000
y153                          1.000000
y17                           1.000000
y46                           1.000000
y252                          1.000000
y138                          1.000000
y92                           1.000000
y99                           1.000000
y150                          1.000000
y263                          1.000000
s98                           4.200000
s142                          4.220000
s41                           4.240000
s89                           4.240000
s169                          4.240000
s203                          4.250000
s115                          4.270000
s266                          4.290000
s153                          4.842347
s199                          4.310000
s43                           4.330000
s269                          4.380000
s97                           4.400000
s152                          4.410000
s79                           4.420000
s17                           5.413712
s53                           4.440000
s68                           4.490000
s46                           5.324129
s246                          4.690000
s160                          4.880000
s158                          5.080000
s252                          5.495041
s175                          5.190000
s101                          5.200000
s138                          5.985487
s47                           5.240000
s70                           5.260000
s92                           5.894349
s106                          5.330000
s99                           5.436177
s150                          5.480000
s63                           5.500000
s229                          5.610000
s118                          5.620000
s263                          5.679584
s193                          5.960000
x162x153x1                    1.000000
x42x17x1                      1.000000
x223x17x1                     1.000000
x223x263x1                    1.000000
x80x150x2                     1.000000
x78x46x2                      2.000000
x210x92x2                     1.000000
x80x252x3                     1.000000
x137x92x3                     1.000000
x137x263x3                    1.000000
x45x153x3                     1.000000
x102x252x3                    1.000000
x102x150x3                    1.000000
x104x99x3                     2.000000
x153x138x1                    1.000000
x153x138x3                    1.000000
x17x0x1                       2.000000
x46x0x2                       2.000000
x252x0x3                      2.000000
x138x0x1                      1.000000
x138x0x3                      1.000000
x92x0x2                       1.000000
x92x0x3                       1.000000
x99x0x3                       2.000000
x150x0x2                      1.000000
x150x0x3                      1.000000
x263x0x1                      1.000000
x263x0x3                      1.000000
s80                           4.151996
z80z252z3                     1.000000
z80z150z2                     1.000000
z80z193z3                     1.000000
s137                          4.247102
z137z92z3                     1.000000
z137z263z3                    1.000000
z137z193z3                    1.000000
s78                           4.143120
z78z46z2                      1.000000
s162                          3.508480
z162z153z1                    1.000000
s42                           3.810270
z42z17z1                      1.000000
s45                           3.474270
z45z153z3                     1.000000
z45z99z3                      1.000000
z45z193z3                     1.000000
s102                          4.008640
z102z252z3                    1.000000
z102z150z3                    1.000000
z102z193z3                    1.000000
s104                          3.946670
z104z252z3                    1.000000
z104z99z3                     1.000000
z104z193z3                    1.000000
s223                          4.026550
z223z17z1                     1.000000
z223z263z1                    1.000000
s210                          4.054110
z210z92z2                     1.000000
z153z138z1                    1.000000
z153z138z3                    1.000000
All other variables in the range 1-968 are 0.
